(set-info :smt-lib-version 2.6)
(set-logic QF_NIA)
(set-info :source |
Generated by: Cristina Borralleras, Daniel Larraz, Albert Oliveras, Enric Rodriguez-Carbonell, Albert Rubio
Generated on: 2017-04-27
Generator: VeryMax
Application: Termination proving
Target solver: barcelogic
|)
(set-info :license "https://creativecommons.org/licenses/by/4.0/")
(set-info :category "industrial")
(set-info :status sat)
(declare-fun Nl2id^01 () Int)
(declare-fun Nl2maxId^01 () Int)
(declare-fun Nl2tmp^01 () Int)
(declare-fun Nl2id^02 () Int)
(declare-fun Nl2maxId^02 () Int)
(declare-fun Nl2tmp^02 () Int)
(declare-fun lam0n0 () Int)
(declare-fun lam0n1 () Int)
(declare-fun lam0n2 () Int)
(declare-fun lam0n3 () Int)
(declare-fun lam0n4 () Int)
(declare-fun lam0n5 () Int)
(declare-fun lam0n6 () Int)
(declare-fun lam0n7 () Int)
(declare-fun UndefCntr0_CT () Int)
(declare-fun Nl2CT1 () Int)
(declare-fun Nl2CT2 () Int)
(declare-fun UndefCntr0_id^0 () Int)
(declare-fun UndefCntr0_maxId^0 () Int)
(declare-fun UndefCntr0_tmp^0 () Int)
(declare-fun UndefCntr0_undef24 () Int)
(declare-fun lam1n0 () Int)
(declare-fun lam1n1 () Int)
(declare-fun lam1n2 () Int)
(declare-fun lam1n3 () Int)
(declare-fun lam1n4 () Int)
(declare-fun lam1n5 () Int)
(declare-fun lam1n6 () Int)
(declare-fun lam1n7 () Int)
(declare-fun lam2n0 () Int)
(declare-fun lam2n1 () Int)
(declare-fun lam2n2 () Int)
(declare-fun lam2n3 () Int)
(declare-fun lam2n4 () Int)
(declare-fun lam2n5 () Int)
(declare-fun lam2n6 () Int)
(declare-fun lam2n7 () Int)
(declare-fun lam3n0 () Int)
(declare-fun lam3n1 () Int)
(declare-fun lam3n2 () Int)
(declare-fun lam3n3 () Int)
(declare-fun lam3n4 () Int)
(declare-fun lam3n5 () Int)
(declare-fun lam3n6 () Int)
(declare-fun lam3n7 () Int)
(declare-fun UndefCntr1_CT () Int)
(declare-fun UndefCntr1_id^0 () Int)
(declare-fun UndefCntr1_maxId^0 () Int)
(declare-fun UndefCntr1_tmp^0 () Int)
(declare-fun UndefCntr1_undef24 () Int)
(declare-fun lam4n0 () Int)
(declare-fun lam4n1 () Int)
(declare-fun lam4n2 () Int)
(declare-fun lam4n3 () Int)
(declare-fun lam4n4 () Int)
(declare-fun lam4n5 () Int)
(declare-fun lam4n6 () Int)
(declare-fun lam4n7 () Int)
(declare-fun lam5n0 () Int)
(declare-fun lam5n1 () Int)
(declare-fun lam5n2 () Int)
(declare-fun lam5n3 () Int)
(declare-fun lam5n4 () Int)
(declare-fun lam5n5 () Int)
(declare-fun lam5n6 () Int)
(declare-fun lam5n7 () Int)
(declare-fun lam6n0 () Int)
(declare-fun lam6n1 () Int)
(declare-fun lam6n2 () Int)
(declare-fun lam6n3 () Int)
(declare-fun lam6n4 () Int)
(declare-fun lam6n5 () Int)
(declare-fun lam6n6 () Int)
(declare-fun lam6n7 () Int)
(declare-fun UndefCntr2_CT () Int)
(declare-fun UndefCntr2_id^0 () Int)
(declare-fun UndefCntr2_maxId^0 () Int)
(declare-fun UndefCntr2_tmp^0 () Int)
(declare-fun UndefCntr2_undef24 () Int)
(declare-fun lam7n0 () Int)
(declare-fun lam7n1 () Int)
(declare-fun lam7n2 () Int)
(declare-fun lam7n3 () Int)
(declare-fun lam7n4 () Int)
(declare-fun lam7n5 () Int)
(declare-fun lam7n6 () Int)
(declare-fun lam7n7 () Int)
(declare-fun lam8n0 () Int)
(declare-fun lam8n1 () Int)
(declare-fun lam8n2 () Int)
(declare-fun lam8n3 () Int)
(declare-fun lam8n4 () Int)
(declare-fun lam8n5 () Int)
(declare-fun lam8n6 () Int)
(declare-fun lam8n7 () Int)
(declare-fun lam9n0 () Int)
(declare-fun lam9n1 () Int)
(declare-fun lam9n2 () Int)
(declare-fun lam9n3 () Int)
(declare-fun lam9n4 () Int)
(declare-fun lam9n5 () Int)
(declare-fun lam9n6 () Int)
(declare-fun lam9n7 () Int)
(declare-fun UndefCntr3_CT () Int)
(declare-fun UndefCntr3_id^0 () Int)
(declare-fun UndefCntr3_maxId^0 () Int)
(declare-fun UndefCntr3_tmp^0 () Int)
(declare-fun UndefCntr3_undef24 () Int)
(declare-fun lam10n0 () Int)
(declare-fun lam10n1 () Int)
(declare-fun lam10n2 () Int)
(declare-fun lam10n3 () Int)
(declare-fun lam10n4 () Int)
(declare-fun lam10n5 () Int)
(declare-fun lam10n6 () Int)
(declare-fun lam10n7 () Int)
(declare-fun lam11n0 () Int)
(declare-fun lam11n1 () Int)
(declare-fun lam11n2 () Int)
(declare-fun lam11n3 () Int)
(declare-fun lam11n4 () Int)
(declare-fun lam11n5 () Int)
(declare-fun lam11n6 () Int)
(declare-fun lam11n7 () Int)
(declare-fun lam12n0 () Int)
(declare-fun lam12n1 () Int)
(declare-fun lam12n2 () Int)
(declare-fun lam13n0 () Int)
(declare-fun lam13n1 () Int)
(declare-fun lam13n2 () Int)
(declare-fun id^0 () Int)
(declare-fun maxId^0 () Int)
(declare-fun tmp^0 () Int)
(declare-fun FV_id^0_4 () Int)
(declare-fun FV_maxId^0_4 () Int)
(declare-fun FV_tmp^0_4 () Int)
(declare-fun FV_undef24_0 () Int)
(declare-fun FV_id^0_0 () Int)
(declare-fun FV_maxId^0_0 () Int)
(declare-fun FV_tmp^0_0 () Int)
(declare-fun FV_undef24_1 () Int)
(declare-fun FV_id^0_1 () Int)
(declare-fun FV_maxId^0_1 () Int)
(declare-fun FV_tmp^0_1 () Int)
(declare-fun FV_undef24_2 () Int)
(declare-fun FV_id^0_2 () Int)
(declare-fun FV_maxId^0_2 () Int)
(declare-fun FV_tmp^0_2 () Int)
(declare-fun FV_undef24_3 () Int)
(declare-fun FV_id^0_3 () Int)
(declare-fun FV_maxId^0_3 () Int)
(declare-fun FV_tmp^0_3 () Int)
(declare-fun lam14n0 () Int)
(declare-fun lam14n1 () Int)
(declare-fun lam14n2 () Int)
(declare-fun lam14n3 () Int)
(declare-fun lam15n0 () Int)
(declare-fun lam15n1 () Int)
(declare-fun lam15n2 () Int)
(declare-fun lam15n3 () Int)
(declare-fun lam15n4 () Int)
(declare-fun lam16n0 () Int)
(declare-fun lam16n1 () Int)
(declare-fun lam16n2 () Int)
(declare-fun lam16n3 () Int)
(declare-fun lam16n4 () Int)
(declare-fun FV_id^0_5 () Int)
(declare-fun FV_maxId^0_5 () Int)
(declare-fun FV_tmp^0_5 () Int)
(declare-fun FV_undef24_5 () Int)
(assert ( and ( <= ( - 1 ) Nl2id^01 ) ( <= Nl2id^01 1 ) ( <= ( - 1 ) Nl2maxId^01 ) ( <= Nl2maxId^01 1 ) ( <= ( - 1 ) Nl2tmp^01 ) ( <= Nl2tmp^01 1 ) ( <= ( - 1 ) Nl2id^02 ) ( <= Nl2id^02 1 ) ( <= ( - 1 ) Nl2maxId^02 ) ( <= Nl2maxId^02 1 ) ( <= ( - 1 ) Nl2tmp^02 ) ( <= Nl2tmp^02 1 ) ))
(assert ( or ( and ( >= lam0n0 0 ) ( >= lam0n1 0 ) ( >= lam0n2 0 ) ( >= lam0n3 0 ) ( >= lam0n4 0 ) ( >= lam0n5 0 ) ( >= lam0n6 0 ) ( >= lam0n7 0 ) ( > ( + ( * 1 lam0n0 ) ( * 1 lam0n1 ) ( * 1 lam0n2 ) ( * 1 lam0n3 ) ( * ( - 1 ) lam0n4 ) ( * UndefCntr0_CT lam0n5 ) ( * Nl2CT1 lam0n6 ) ( * Nl2CT2 lam0n7 ) ( - 1 ) ) 0 ) ( = ( + ( * 1 lam0n0 ) ( * 1 lam0n1 ) ( * ( - 1 ) lam0n4 ) ( * UndefCntr0_id^0 lam0n5 ) ( * Nl2id^01 lam0n6 ) ( * Nl2id^02 lam0n7 ) ) 0 ) ( = ( + ( * ( - 1 ) lam0n0 ) ( * 1 lam0n2 ) ( * ( - 1 ) lam0n4 ) ( * UndefCntr0_maxId^0 lam0n5 ) ( * Nl2maxId^01 lam0n6 ) ( * Nl2maxId^02 lam0n7 ) ) 0 ) ( = ( + ( * ( - 1 ) lam0n1 ) ( * ( - 1 ) lam0n2 ) ( * UndefCntr0_tmp^0 lam0n5 ) ( * Nl2tmp^01 lam0n6 ) ( * Nl2tmp^02 lam0n7 ) ) 0 ) ( = ( + ( * ( - 1 ) lam0n3 ) ( * UndefCntr0_undef24 lam0n5 ) ) 0 ) ) ( and ( >= lam1n0 0 ) ( >= lam1n1 0 ) ( >= lam1n2 0 ) ( >= lam1n3 0 ) ( >= lam1n4 0 ) ( >= lam1n5 0 ) ( >= lam1n6 0 ) ( >= lam1n7 0 ) ( > ( + ( * 1 lam1n0 ) ( * 1 lam1n1 ) ( * 1 lam1n2 ) ( * 1 lam1n3 ) ( * ( - 1 ) lam1n4 ) ( * UndefCntr0_CT lam1n5 ) ( * Nl2CT1 lam1n6 ) ( * Nl2CT2 lam1n7 ) ( - 1 ( + Nl2CT1 ( * Nl2tmp^01 0 ) ) ) ) 0 ) ( = ( + ( * 1 lam1n0 ) ( * 1 lam1n1 ) ( * ( - 1 ) lam1n4 ) ( * UndefCntr0_id^0 lam1n5 ) ( * Nl2id^01 lam1n6 ) ( * Nl2id^02 lam1n7 ) ( - ( + 0 Nl2id^01 ) ) ) 0 ) ( = ( + ( * ( - 1 ) lam1n0 ) ( * 1 lam1n2 ) ( * ( - 1 ) lam1n4 ) ( * UndefCntr0_maxId^0 lam1n5 ) ( * Nl2maxId^01 lam1n6 ) ( * Nl2maxId^02 lam1n7 ) ( - ( + 0 Nl2maxId^01 ) ) ) 0 ) ( = ( + ( * ( - 1 ) lam1n1 ) ( * ( - 1 ) lam1n2 ) ( * UndefCntr0_tmp^0 lam1n5 ) ( * Nl2tmp^01 lam1n6 ) ( * Nl2tmp^02 lam1n7 ) ) 0 ) ( = ( + ( * ( - 1 ) lam1n3 ) ( * UndefCntr0_undef24 lam1n5 ) ) 0 ) ) ))
(assert ( or ( and ( >= lam0n0 0 ) ( >= lam0n1 0 ) ( >= lam0n2 0 ) ( >= lam0n3 0 ) ( >= lam0n4 0 ) ( >= lam0n5 0 ) ( >= lam0n6 0 ) ( >= lam0n7 0 ) ( > ( + ( * 1 lam0n0 ) ( * 1 lam0n1 ) ( * 1 lam0n2 ) ( * 1 lam0n3 ) ( * ( - 1 ) lam0n4 ) ( * UndefCntr0_CT lam0n5 ) ( * Nl2CT1 lam0n6 ) ( * Nl2CT2 lam0n7 ) ( - 1 ) ) 0 ) ( = ( + ( * 1 lam0n0 ) ( * 1 lam0n1 ) ( * ( - 1 ) lam0n4 ) ( * UndefCntr0_id^0 lam0n5 ) ( * Nl2id^01 lam0n6 ) ( * Nl2id^02 lam0n7 ) ) 0 ) ( = ( + ( * ( - 1 ) lam0n0 ) ( * 1 lam0n2 ) ( * ( - 1 ) lam0n4 ) ( * UndefCntr0_maxId^0 lam0n5 ) ( * Nl2maxId^01 lam0n6 ) ( * Nl2maxId^02 lam0n7 ) ) 0 ) ( = ( + ( * ( - 1 ) lam0n1 ) ( * ( - 1 ) lam0n2 ) ( * UndefCntr0_tmp^0 lam0n5 ) ( * Nl2tmp^01 lam0n6 ) ( * Nl2tmp^02 lam0n7 ) ) 0 ) ( = ( + ( * ( - 1 ) lam0n3 ) ( * UndefCntr0_undef24 lam0n5 ) ) 0 ) ) ( and ( >= lam2n0 0 ) ( >= lam2n1 0 ) ( >= lam2n2 0 ) ( >= lam2n3 0 ) ( >= lam2n4 0 ) ( >= lam2n5 0 ) ( >= lam2n6 0 ) ( >= lam2n7 0 ) ( > ( + ( * 1 lam2n0 ) ( * 1 lam2n1 ) ( * 1 lam2n2 ) ( * 1 lam2n3 ) ( * ( - 1 ) lam2n4 ) ( * UndefCntr0_CT lam2n5 ) ( * Nl2CT1 lam2n6 ) ( * Nl2CT2 lam2n7 ) ( - 1 ( + Nl2CT2 ( * Nl2tmp^02 0 ) ) ) ) 0 ) ( = ( + ( * 1 lam2n0 ) ( * 1 lam2n1 ) ( * ( - 1 ) lam2n4 ) ( * UndefCntr0_id^0 lam2n5 ) ( * Nl2id^01 lam2n6 ) ( * Nl2id^02 lam2n7 ) ( - ( + 0 Nl2id^02 ) ) ) 0 ) ( = ( + ( * ( - 1 ) lam2n0 ) ( * 1 lam2n2 ) ( * ( - 1 ) lam2n4 ) ( * UndefCntr0_maxId^0 lam2n5 ) ( * Nl2maxId^01 lam2n6 ) ( * Nl2maxId^02 lam2n7 ) ( - ( + 0 Nl2maxId^02 ) ) ) 0 ) ( = ( + ( * ( - 1 ) lam2n1 ) ( * ( - 1 ) lam2n2 ) ( * UndefCntr0_tmp^0 lam2n5 ) ( * Nl2tmp^01 lam2n6 ) ( * Nl2tmp^02 lam2n7 ) ) 0 ) ( = ( + ( * ( - 1 ) lam2n3 ) ( * UndefCntr0_undef24 lam2n5 ) ) 0 ) ) ))
(assert ( or ( and ( >= lam3n0 0 ) ( >= lam3n1 0 ) ( >= lam3n2 0 ) ( >= lam3n3 0 ) ( >= lam3n4 0 ) ( >= lam3n5 0 ) ( >= lam3n6 0 ) ( >= lam3n7 0 ) ( > ( + ( * 1 lam3n0 ) ( * 1 lam3n1 ) ( * 1 lam3n2 ) ( * ( - 1 ) lam3n4 ) ( * UndefCntr1_CT lam3n5 ) ( * Nl2CT1 lam3n6 ) ( * Nl2CT2 lam3n7 ) ( - 1 ) ) 0 ) ( = ( + ( * 1 lam3n0 ) ( * 1 lam3n1 ) ( * ( - 1 ) lam3n4 ) ( * UndefCntr1_id^0 lam3n5 ) ( * Nl2id^01 lam3n6 ) ( * Nl2id^02 lam3n7 ) ) 0 ) ( = ( + ( * ( - 1 ) lam3n0 ) ( * ( - 1 ) lam3n3 ) ( * ( - 1 ) lam3n4 ) ( * UndefCntr1_maxId^0 lam3n5 ) ( * Nl2maxId^01 lam3n6 ) ( * Nl2maxId^02 lam3n7 ) ) 0 ) ( = ( + ( * ( - 1 ) lam3n1 ) ( * 1 lam3n3 ) ( * UndefCntr1_tmp^0 lam3n5 ) ( * Nl2tmp^01 lam3n6 ) ( * Nl2tmp^02 lam3n7 ) ) 0 ) ( = ( + ( * ( - 1 ) lam3n2 ) ( * UndefCntr1_undef24 lam3n5 ) ) 0 ) ) ( and ( >= lam4n0 0 ) ( >= lam4n1 0 ) ( >= lam4n2 0 ) ( >= lam4n3 0 ) ( >= lam4n4 0 ) ( >= lam4n5 0 ) ( >= lam4n6 0 ) ( >= lam4n7 0 ) ( > ( + ( * 1 lam4n0 ) ( * 1 lam4n1 ) ( * 1 lam4n2 ) ( * ( - 1 ) lam4n4 ) ( * UndefCntr1_CT lam4n5 ) ( * Nl2CT1 lam4n6 ) ( * Nl2CT2 lam4n7 ) ( - 1 ( + Nl2CT1 ( * Nl2tmp^01 1 ) ) ) ) 0 ) ( = ( + ( * 1 lam4n0 ) ( * 1 lam4n1 ) ( * ( - 1 ) lam4n4 ) ( * UndefCntr1_id^0 lam4n5 ) ( * Nl2id^01 lam4n6 ) ( * Nl2id^02 lam4n7 ) ( - ( + 0 Nl2id^01 ) ) ) 0 ) ( = ( + ( * ( - 1 ) lam4n0 ) ( * ( - 1 ) lam4n3 ) ( * ( - 1 ) lam4n4 ) ( * UndefCntr1_maxId^0 lam4n5 ) ( * Nl2maxId^01 lam4n6 ) ( * Nl2maxId^02 lam4n7 ) ( - ( + 0 Nl2maxId^01 ) ) ) 0 ) ( = ( + ( * ( - 1 ) lam4n1 ) ( * 1 lam4n3 ) ( * UndefCntr1_tmp^0 lam4n5 ) ( * Nl2tmp^01 lam4n6 ) ( * Nl2tmp^02 lam4n7 ) ( - ( + 0 ( * Nl2tmp^01 1 ) ) ) ) 0 ) ( = ( + ( * ( - 1 ) lam4n2 ) ( * UndefCntr1_undef24 lam4n5 ) ) 0 ) ) ))
(assert ( or ( and ( >= lam3n0 0 ) ( >= lam3n1 0 ) ( >= lam3n2 0 ) ( >= lam3n3 0 ) ( >= lam3n4 0 ) ( >= lam3n5 0 ) ( >= lam3n6 0 ) ( >= lam3n7 0 ) ( > ( + ( * 1 lam3n0 ) ( * 1 lam3n1 ) ( * 1 lam3n2 ) ( * ( - 1 ) lam3n4 ) ( * UndefCntr1_CT lam3n5 ) ( * Nl2CT1 lam3n6 ) ( * Nl2CT2 lam3n7 ) ( - 1 ) ) 0 ) ( = ( + ( * 1 lam3n0 ) ( * 1 lam3n1 ) ( * ( - 1 ) lam3n4 ) ( * UndefCntr1_id^0 lam3n5 ) ( * Nl2id^01 lam3n6 ) ( * Nl2id^02 lam3n7 ) ) 0 ) ( = ( + ( * ( - 1 ) lam3n0 ) ( * ( - 1 ) lam3n3 ) ( * ( - 1 ) lam3n4 ) ( * UndefCntr1_maxId^0 lam3n5 ) ( * Nl2maxId^01 lam3n6 ) ( * Nl2maxId^02 lam3n7 ) ) 0 ) ( = ( + ( * ( - 1 ) lam3n1 ) ( * 1 lam3n3 ) ( * UndefCntr1_tmp^0 lam3n5 ) ( * Nl2tmp^01 lam3n6 ) ( * Nl2tmp^02 lam3n7 ) ) 0 ) ( = ( + ( * ( - 1 ) lam3n2 ) ( * UndefCntr1_undef24 lam3n5 ) ) 0 ) ) ( and ( >= lam5n0 0 ) ( >= lam5n1 0 ) ( >= lam5n2 0 ) ( >= lam5n3 0 ) ( >= lam5n4 0 ) ( >= lam5n5 0 ) ( >= lam5n6 0 ) ( >= lam5n7 0 ) ( > ( + ( * 1 lam5n0 ) ( * 1 lam5n1 ) ( * 1 lam5n2 ) ( * ( - 1 ) lam5n4 ) ( * UndefCntr1_CT lam5n5 ) ( * Nl2CT1 lam5n6 ) ( * Nl2CT2 lam5n7 ) ( - 1 ( + Nl2CT2 ( * Nl2tmp^02 1 ) ) ) ) 0 ) ( = ( + ( * 1 lam5n0 ) ( * 1 lam5n1 ) ( * ( - 1 ) lam5n4 ) ( * UndefCntr1_id^0 lam5n5 ) ( * Nl2id^01 lam5n6 ) ( * Nl2id^02 lam5n7 ) ( - ( + 0 Nl2id^02 ) ) ) 0 ) ( = ( + ( * ( - 1 ) lam5n0 ) ( * ( - 1 ) lam5n3 ) ( * ( - 1 ) lam5n4 ) ( * UndefCntr1_maxId^0 lam5n5 ) ( * Nl2maxId^01 lam5n6 ) ( * Nl2maxId^02 lam5n7 ) ( - ( + 0 Nl2maxId^02 ) ) ) 0 ) ( = ( + ( * ( - 1 ) lam5n1 ) ( * 1 lam5n3 ) ( * UndefCntr1_tmp^0 lam5n5 ) ( * Nl2tmp^01 lam5n6 ) ( * Nl2tmp^02 lam5n7 ) ( - ( + 0 ( * Nl2tmp^02 1 ) ) ) ) 0 ) ( = ( + ( * ( - 1 ) lam5n2 ) ( * UndefCntr1_undef24 lam5n5 ) ) 0 ) ) ))
(assert ( or ( and ( >= lam6n0 0 ) ( >= lam6n1 0 ) ( >= lam6n2 0 ) ( >= lam6n3 0 ) ( >= lam6n4 0 ) ( >= lam6n5 0 ) ( >= lam6n6 0 ) ( >= lam6n7 0 ) ( > ( + ( * 1 lam6n0 ) ( * 1 lam6n1 ) ( * 1 lam6n2 ) ( * 1 lam6n3 ) ( * ( - 1 ) lam6n4 ) ( * UndefCntr2_CT lam6n5 ) ( * Nl2CT1 lam6n6 ) ( * Nl2CT2 lam6n7 ) ( - 1 ) ) 0 ) ( = ( + ( * 1 lam6n0 ) ( * 1 lam6n1 ) ( * ( - 1 ) lam6n4 ) ( * UndefCntr2_id^0 lam6n5 ) ( * Nl2id^01 lam6n6 ) ( * Nl2id^02 lam6n7 ) ) 0 ) ( = ( + ( * ( - 1 ) lam6n0 ) ( * 1 lam6n2 ) ( * ( - 1 ) lam6n4 ) ( * UndefCntr2_maxId^0 lam6n5 ) ( * Nl2maxId^01 lam6n6 ) ( * Nl2maxId^02 lam6n7 ) ) 0 ) ( = ( + ( * ( - 1 ) lam6n1 ) ( * ( - 1 ) lam6n2 ) ( * UndefCntr2_tmp^0 lam6n5 ) ( * Nl2tmp^01 lam6n6 ) ( * Nl2tmp^02 lam6n7 ) ) 0 ) ( = ( + ( * 1 lam6n3 ) ( * UndefCntr2_undef24 lam6n5 ) ) 0 ) ) ( and ( >= lam7n0 0 ) ( >= lam7n1 0 ) ( >= lam7n2 0 ) ( >= lam7n3 0 ) ( >= lam7n4 0 ) ( >= lam7n5 0 ) ( >= lam7n6 0 ) ( >= lam7n7 0 ) ( > ( + ( * 1 lam7n0 ) ( * 1 lam7n1 ) ( * 1 lam7n2 ) ( * 1 lam7n3 ) ( * ( - 1 ) lam7n4 ) ( * UndefCntr2_CT lam7n5 ) ( * Nl2CT1 lam7n6 ) ( * Nl2CT2 lam7n7 ) ( - 1 ( + Nl2CT1 ( * Nl2tmp^01 0 ) ) ) ) 0 ) ( = ( + ( * 1 lam7n0 ) ( * 1 lam7n1 ) ( * ( - 1 ) lam7n4 ) ( * UndefCntr2_id^0 lam7n5 ) ( * Nl2id^01 lam7n6 ) ( * Nl2id^02 lam7n7 ) ( - ( + 0 Nl2id^01 ) ) ) 0 ) ( = ( + ( * ( - 1 ) lam7n0 ) ( * 1 lam7n2 ) ( * ( - 1 ) lam7n4 ) ( * UndefCntr2_maxId^0 lam7n5 ) ( * Nl2maxId^01 lam7n6 ) ( * Nl2maxId^02 lam7n7 ) ( - ( + 0 Nl2maxId^01 ) ) ) 0 ) ( = ( + ( * ( - 1 ) lam7n1 ) ( * ( - 1 ) lam7n2 ) ( * UndefCntr2_tmp^0 lam7n5 ) ( * Nl2tmp^01 lam7n6 ) ( * Nl2tmp^02 lam7n7 ) ) 0 ) ( = ( + ( * 1 lam7n3 ) ( * UndefCntr2_undef24 lam7n5 ) ) 0 ) ) ))
(assert ( or ( and ( >= lam6n0 0 ) ( >= lam6n1 0 ) ( >= lam6n2 0 ) ( >= lam6n3 0 ) ( >= lam6n4 0 ) ( >= lam6n5 0 ) ( >= lam6n6 0 ) ( >= lam6n7 0 ) ( > ( + ( * 1 lam6n0 ) ( * 1 lam6n1 ) ( * 1 lam6n2 ) ( * 1 lam6n3 ) ( * ( - 1 ) lam6n4 ) ( * UndefCntr2_CT lam6n5 ) ( * Nl2CT1 lam6n6 ) ( * Nl2CT2 lam6n7 ) ( - 1 ) ) 0 ) ( = ( + ( * 1 lam6n0 ) ( * 1 lam6n1 ) ( * ( - 1 ) lam6n4 ) ( * UndefCntr2_id^0 lam6n5 ) ( * Nl2id^01 lam6n6 ) ( * Nl2id^02 lam6n7 ) ) 0 ) ( = ( + ( * ( - 1 ) lam6n0 ) ( * 1 lam6n2 ) ( * ( - 1 ) lam6n4 ) ( * UndefCntr2_maxId^0 lam6n5 ) ( * Nl2maxId^01 lam6n6 ) ( * Nl2maxId^02 lam6n7 ) ) 0 ) ( = ( + ( * ( - 1 ) lam6n1 ) ( * ( - 1 ) lam6n2 ) ( * UndefCntr2_tmp^0 lam6n5 ) ( * Nl2tmp^01 lam6n6 ) ( * Nl2tmp^02 lam6n7 ) ) 0 ) ( = ( + ( * 1 lam6n3 ) ( * UndefCntr2_undef24 lam6n5 ) ) 0 ) ) ( and ( >= lam8n0 0 ) ( >= lam8n1 0 ) ( >= lam8n2 0 ) ( >= lam8n3 0 ) ( >= lam8n4 0 ) ( >= lam8n5 0 ) ( >= lam8n6 0 ) ( >= lam8n7 0 ) ( > ( + ( * 1 lam8n0 ) ( * 1 lam8n1 ) ( * 1 lam8n2 ) ( * 1 lam8n3 ) ( * ( - 1 ) lam8n4 ) ( * UndefCntr2_CT lam8n5 ) ( * Nl2CT1 lam8n6 ) ( * Nl2CT2 lam8n7 ) ( - 1 ( + Nl2CT2 ( * Nl2tmp^02 0 ) ) ) ) 0 ) ( = ( + ( * 1 lam8n0 ) ( * 1 lam8n1 ) ( * ( - 1 ) lam8n4 ) ( * UndefCntr2_id^0 lam8n5 ) ( * Nl2id^01 lam8n6 ) ( * Nl2id^02 lam8n7 ) ( - ( + 0 Nl2id^02 ) ) ) 0 ) ( = ( + ( * ( - 1 ) lam8n0 ) ( * 1 lam8n2 ) ( * ( - 1 ) lam8n4 ) ( * UndefCntr2_maxId^0 lam8n5 ) ( * Nl2maxId^01 lam8n6 ) ( * Nl2maxId^02 lam8n7 ) ( - ( + 0 Nl2maxId^02 ) ) ) 0 ) ( = ( + ( * ( - 1 ) lam8n1 ) ( * ( - 1 ) lam8n2 ) ( * UndefCntr2_tmp^0 lam8n5 ) ( * Nl2tmp^01 lam8n6 ) ( * Nl2tmp^02 lam8n7 ) ) 0 ) ( = ( + ( * 1 lam8n3 ) ( * UndefCntr2_undef24 lam8n5 ) ) 0 ) ) ))
(assert ( or ( and ( >= lam9n0 0 ) ( >= lam9n1 0 ) ( >= lam9n2 0 ) ( >= lam9n3 0 ) ( >= lam9n4 0 ) ( >= lam9n5 0 ) ( >= lam9n6 0 ) ( >= lam9n7 0 ) ( > ( + ( * 1 lam9n0 ) ( * 1 lam9n1 ) ( * 1 lam9n2 ) ( * ( - 1 ) lam9n4 ) ( * UndefCntr3_CT lam9n5 ) ( * Nl2CT1 lam9n6 ) ( * Nl2CT2 lam9n7 ) ( - 1 ) ) 0 ) ( = ( + ( * 1 lam9n0 ) ( * 1 lam9n1 ) ( * ( - 1 ) lam9n4 ) ( * UndefCntr3_id^0 lam9n5 ) ( * Nl2id^01 lam9n6 ) ( * Nl2id^02 lam9n7 ) ) 0 ) ( = ( + ( * ( - 1 ) lam9n0 ) ( * ( - 1 ) lam9n3 ) ( * ( - 1 ) lam9n4 ) ( * UndefCntr3_maxId^0 lam9n5 ) ( * Nl2maxId^01 lam9n6 ) ( * Nl2maxId^02 lam9n7 ) ) 0 ) ( = ( + ( * ( - 1 ) lam9n1 ) ( * 1 lam9n3 ) ( * UndefCntr3_tmp^0 lam9n5 ) ( * Nl2tmp^01 lam9n6 ) ( * Nl2tmp^02 lam9n7 ) ) 0 ) ( = ( + ( * 1 lam9n2 ) ( * UndefCntr3_undef24 lam9n5 ) ) 0 ) ) ( and ( >= lam10n0 0 ) ( >= lam10n1 0 ) ( >= lam10n2 0 ) ( >= lam10n3 0 ) ( >= lam10n4 0 ) ( >= lam10n5 0 ) ( >= lam10n6 0 ) ( >= lam10n7 0 ) ( > ( + ( * 1 lam10n0 ) ( * 1 lam10n1 ) ( * 1 lam10n2 ) ( * ( - 1 ) lam10n4 ) ( * UndefCntr3_CT lam10n5 ) ( * Nl2CT1 lam10n6 ) ( * Nl2CT2 lam10n7 ) ( - 1 ( + Nl2CT1 ( * Nl2tmp^01 1 ) ) ) ) 0 ) ( = ( + ( * 1 lam10n0 ) ( * 1 lam10n1 ) ( * ( - 1 ) lam10n4 ) ( * UndefCntr3_id^0 lam10n5 ) ( * Nl2id^01 lam10n6 ) ( * Nl2id^02 lam10n7 ) ( - ( + 0 Nl2id^01 ) ) ) 0 ) ( = ( + ( * ( - 1 ) lam10n0 ) ( * ( - 1 ) lam10n3 ) ( * ( - 1 ) lam10n4 ) ( * UndefCntr3_maxId^0 lam10n5 ) ( * Nl2maxId^01 lam10n6 ) ( * Nl2maxId^02 lam10n7 ) ( - ( + 0 Nl2maxId^01 ) ) ) 0 ) ( = ( + ( * ( - 1 ) lam10n1 ) ( * 1 lam10n3 ) ( * UndefCntr3_tmp^0 lam10n5 ) ( * Nl2tmp^01 lam10n6 ) ( * Nl2tmp^02 lam10n7 ) ( - ( + 0 ( * Nl2tmp^01 1 ) ) ) ) 0 ) ( = ( + ( * 1 lam10n2 ) ( * UndefCntr3_undef24 lam10n5 ) ) 0 ) ) ))
(assert ( or ( and ( >= lam9n0 0 ) ( >= lam9n1 0 ) ( >= lam9n2 0 ) ( >= lam9n3 0 ) ( >= lam9n4 0 ) ( >= lam9n5 0 ) ( >= lam9n6 0 ) ( >= lam9n7 0 ) ( > ( + ( * 1 lam9n0 ) ( * 1 lam9n1 ) ( * 1 lam9n2 ) ( * ( - 1 ) lam9n4 ) ( * UndefCntr3_CT lam9n5 ) ( * Nl2CT1 lam9n6 ) ( * Nl2CT2 lam9n7 ) ( - 1 ) ) 0 ) ( = ( + ( * 1 lam9n0 ) ( * 1 lam9n1 ) ( * ( - 1 ) lam9n4 ) ( * UndefCntr3_id^0 lam9n5 ) ( * Nl2id^01 lam9n6 ) ( * Nl2id^02 lam9n7 ) ) 0 ) ( = ( + ( * ( - 1 ) lam9n0 ) ( * ( - 1 ) lam9n3 ) ( * ( - 1 ) lam9n4 ) ( * UndefCntr3_maxId^0 lam9n5 ) ( * Nl2maxId^01 lam9n6 ) ( * Nl2maxId^02 lam9n7 ) ) 0 ) ( = ( + ( * ( - 1 ) lam9n1 ) ( * 1 lam9n3 ) ( * UndefCntr3_tmp^0 lam9n5 ) ( * Nl2tmp^01 lam9n6 ) ( * Nl2tmp^02 lam9n7 ) ) 0 ) ( = ( + ( * 1 lam9n2 ) ( * UndefCntr3_undef24 lam9n5 ) ) 0 ) ) ( and ( >= lam11n0 0 ) ( >= lam11n1 0 ) ( >= lam11n2 0 ) ( >= lam11n3 0 ) ( >= lam11n4 0 ) ( >= lam11n5 0 ) ( >= lam11n6 0 ) ( >= lam11n7 0 ) ( > ( + ( * 1 lam11n0 ) ( * 1 lam11n1 ) ( * 1 lam11n2 ) ( * ( - 1 ) lam11n4 ) ( * UndefCntr3_CT lam11n5 ) ( * Nl2CT1 lam11n6 ) ( * Nl2CT2 lam11n7 ) ( - 1 ( + Nl2CT2 ( * Nl2tmp^02 1 ) ) ) ) 0 ) ( = ( + ( * 1 lam11n0 ) ( * 1 lam11n1 ) ( * ( - 1 ) lam11n4 ) ( * UndefCntr3_id^0 lam11n5 ) ( * Nl2id^01 lam11n6 ) ( * Nl2id^02 lam11n7 ) ( - ( + 0 Nl2id^02 ) ) ) 0 ) ( = ( + ( * ( - 1 ) lam11n0 ) ( * ( - 1 ) lam11n3 ) ( * ( - 1 ) lam11n4 ) ( * UndefCntr3_maxId^0 lam11n5 ) ( * Nl2maxId^01 lam11n6 ) ( * Nl2maxId^02 lam11n7 ) ( - ( + 0 Nl2maxId^02 ) ) ) 0 ) ( = ( + ( * ( - 1 ) lam11n1 ) ( * 1 lam11n3 ) ( * UndefCntr3_tmp^0 lam11n5 ) ( * Nl2tmp^01 lam11n6 ) ( * Nl2tmp^02 lam11n7 ) ( - ( + 0 ( * Nl2tmp^02 1 ) ) ) ) 0 ) ( = ( + ( * 1 lam11n2 ) ( * UndefCntr3_undef24 lam11n5 ) ) 0 ) ) ))
(assert ( and ( <= ( + Nl2CT1 ( * Nl2id^01 FV_id^0_4 ) ( * Nl2maxId^01 FV_maxId^0_4 ) ( * Nl2tmp^01 FV_tmp^0_4 ) ) 0 ) ( <= ( + Nl2CT2 ( * Nl2id^02 FV_id^0_4 ) ( * Nl2maxId^02 FV_maxId^0_4 ) ( * Nl2tmp^02 FV_tmp^0_4 ) ) 0 ) ))
(assert ( or ( not ( = UndefCntr0_id^0 0 ) ) ( not ( = UndefCntr0_maxId^0 0 ) ) ( not ( = UndefCntr0_tmp^0 0 ) ) ( not ( = UndefCntr0_undef24 0 ) ) ( = UndefCntr0_CT 0 ) ))
(assert ( or ( and ( = UndefCntr0_id^0 0 ) ( = UndefCntr0_maxId^0 0 ) ( = UndefCntr0_tmp^0 0 ) ) ( not ( = UndefCntr0_undef24 0 ) ) ))
(assert ( or ( not ( = UndefCntr1_id^0 0 ) ) ( not ( = UndefCntr1_maxId^0 0 ) ) ( not ( = UndefCntr1_tmp^0 0 ) ) ( not ( = UndefCntr1_undef24 0 ) ) ( = UndefCntr1_CT 0 ) ))
(assert ( or ( and ( = UndefCntr1_id^0 0 ) ( = UndefCntr1_maxId^0 0 ) ( = UndefCntr1_tmp^0 0 ) ) ( not ( = UndefCntr1_undef24 0 ) ) ))
(assert ( or ( not ( = UndefCntr2_id^0 0 ) ) ( not ( = UndefCntr2_maxId^0 0 ) ) ( not ( = UndefCntr2_tmp^0 0 ) ) ( not ( = UndefCntr2_undef24 0 ) ) ( = UndefCntr2_CT 0 ) ))
(assert ( or ( and ( = UndefCntr2_id^0 0 ) ( = UndefCntr2_maxId^0 0 ) ( = UndefCntr2_tmp^0 0 ) ) ( not ( = UndefCntr2_undef24 0 ) ) ))
(assert ( or ( not ( = UndefCntr3_id^0 0 ) ) ( not ( = UndefCntr3_maxId^0 0 ) ) ( not ( = UndefCntr3_tmp^0 0 ) ) ( not ( = UndefCntr3_undef24 0 ) ) ( = UndefCntr3_CT 0 ) ))
(assert ( or ( and ( = UndefCntr3_id^0 0 ) ( = UndefCntr3_maxId^0 0 ) ( = UndefCntr3_tmp^0 0 ) ) ( not ( = UndefCntr3_undef24 0 ) ) ))
(assert ( or ( = UndefCntr0_undef24 0 ) ( and ( and ( = UndefCntr0_id^0 0 ) ( = UndefCntr0_maxId^0 0 ) ( = UndefCntr0_tmp^0 0 ) ) ( or ( and ( <= ( + 1 ( * ( - 1 ) FV_undef24_0 ) ) 0 ) ( <= ( + UndefCntr0_CT ( * UndefCntr0_undef24 FV_undef24_0 ) ( * UndefCntr0_id^0 FV_id^0_0 ) ( * UndefCntr0_maxId^0 FV_maxId^0_0 ) ( * UndefCntr0_tmp^0 FV_tmp^0_0 ) ) 0 ) ) ( and ( and ( = UndefCntr0_undef24 UndefCntr1_undef24 ) ( = UndefCntr0_undef24 UndefCntr2_undef24 ) ( = UndefCntr0_undef24 UndefCntr3_undef24 ) ( = UndefCntr0_CT UndefCntr1_CT ) ( = UndefCntr0_CT UndefCntr2_CT ) ( = UndefCntr0_CT UndefCntr3_CT ) ) ( or ( and ( <= ( + 1 ( * ( - 1 ) FV_undef24_0 ) ) 0 ) ( <= ( + UndefCntr0_CT ( * UndefCntr0_undef24 FV_undef24_0 ) ( * UndefCntr0_id^0 FV_id^0_0 ) ( * UndefCntr0_maxId^0 FV_maxId^0_0 ) ( * UndefCntr0_tmp^0 FV_tmp^0_0 ) ) 0 ) ) ( and ( <= ( + 1 ( * ( - 1 ) FV_undef24_1 ) ) 0 ) ( <= ( + UndefCntr1_CT ( * UndefCntr1_undef24 FV_undef24_1 ) ( * UndefCntr1_id^0 FV_id^0_1 ) ( * UndefCntr1_maxId^0 FV_maxId^0_1 ) ( * UndefCntr1_tmp^0 FV_tmp^0_1 ) ) 0 ) ) ( and ( <= ( + 1 FV_undef24_2 ) 0 ) ( <= ( + UndefCntr2_CT ( * UndefCntr2_undef24 FV_undef24_2 ) ( * UndefCntr2_id^0 FV_id^0_2 ) ( * UndefCntr2_maxId^0 FV_maxId^0_2 ) ( * UndefCntr2_tmp^0 FV_tmp^0_2 ) ) 0 ) ) ( and ( <= ( + 1 FV_undef24_3 ) 0 ) ( <= ( + UndefCntr3_CT ( * UndefCntr3_undef24 FV_undef24_3 ) ( * UndefCntr3_id^0 FV_id^0_3 ) ( * UndefCntr3_maxId^0 FV_maxId^0_3 ) ( * UndefCntr3_tmp^0 FV_tmp^0_3 ) ) 0 ) ) ) ) ) ) ))
(assert ( or ( = UndefCntr1_undef24 0 ) ( and ( and ( = UndefCntr1_id^0 0 ) ( = UndefCntr1_maxId^0 0 ) ( = UndefCntr1_tmp^0 0 ) ) ( or ( and ( <= ( + 1 ( * ( - 1 ) FV_undef24_1 ) ) 0 ) ( <= ( + UndefCntr1_CT ( * UndefCntr1_undef24 FV_undef24_1 ) ( * UndefCntr1_id^0 FV_id^0_1 ) ( * UndefCntr1_maxId^0 FV_maxId^0_1 ) ( * UndefCntr1_tmp^0 FV_tmp^0_1 ) ) 0 ) ) ( and ( and ( = UndefCntr0_undef24 UndefCntr1_undef24 ) ( = UndefCntr0_undef24 UndefCntr2_undef24 ) ( = UndefCntr0_undef24 UndefCntr3_undef24 ) ( = UndefCntr0_CT UndefCntr1_CT ) ( = UndefCntr0_CT UndefCntr2_CT ) ( = UndefCntr0_CT UndefCntr3_CT ) ) ( or ( and ( <= ( + 1 ( * ( - 1 ) FV_undef24_0 ) ) 0 ) ( <= ( + UndefCntr0_CT ( * UndefCntr0_undef24 FV_undef24_0 ) ( * UndefCntr0_id^0 FV_id^0_0 ) ( * UndefCntr0_maxId^0 FV_maxId^0_0 ) ( * UndefCntr0_tmp^0 FV_tmp^0_0 ) ) 0 ) ) ( and ( <= ( + 1 ( * ( - 1 ) FV_undef24_1 ) ) 0 ) ( <= ( + UndefCntr1_CT ( * UndefCntr1_undef24 FV_undef24_1 ) ( * UndefCntr1_id^0 FV_id^0_1 ) ( * UndefCntr1_maxId^0 FV_maxId^0_1 ) ( * UndefCntr1_tmp^0 FV_tmp^0_1 ) ) 0 ) ) ( and ( <= ( + 1 FV_undef24_2 ) 0 ) ( <= ( + UndefCntr2_CT ( * UndefCntr2_undef24 FV_undef24_2 ) ( * UndefCntr2_id^0 FV_id^0_2 ) ( * UndefCntr2_maxId^0 FV_maxId^0_2 ) ( * UndefCntr2_tmp^0 FV_tmp^0_2 ) ) 0 ) ) ( and ( <= ( + 1 FV_undef24_3 ) 0 ) ( <= ( + UndefCntr3_CT ( * UndefCntr3_undef24 FV_undef24_3 ) ( * UndefCntr3_id^0 FV_id^0_3 ) ( * UndefCntr3_maxId^0 FV_maxId^0_3 ) ( * UndefCntr3_tmp^0 FV_tmp^0_3 ) ) 0 ) ) ) ) ) ) ))
(assert ( or ( = UndefCntr2_undef24 0 ) ( and ( and ( = UndefCntr2_id^0 0 ) ( = UndefCntr2_maxId^0 0 ) ( = UndefCntr2_tmp^0 0 ) ) ( or ( and ( <= ( + 1 FV_undef24_2 ) 0 ) ( <= ( + UndefCntr2_CT ( * UndefCntr2_undef24 FV_undef24_2 ) ( * UndefCntr2_id^0 FV_id^0_2 ) ( * UndefCntr2_maxId^0 FV_maxId^0_2 ) ( * UndefCntr2_tmp^0 FV_tmp^0_2 ) ) 0 ) ) ( and ( and ( = UndefCntr0_undef24 UndefCntr1_undef24 ) ( = UndefCntr0_undef24 UndefCntr2_undef24 ) ( = UndefCntr0_undef24 UndefCntr3_undef24 ) ( = UndefCntr0_CT UndefCntr1_CT ) ( = UndefCntr0_CT UndefCntr2_CT ) ( = UndefCntr0_CT UndefCntr3_CT ) ) ( or ( and ( <= ( + 1 ( * ( - 1 ) FV_undef24_0 ) ) 0 ) ( <= ( + UndefCntr0_CT ( * UndefCntr0_undef24 FV_undef24_0 ) ( * UndefCntr0_id^0 FV_id^0_0 ) ( * UndefCntr0_maxId^0 FV_maxId^0_0 ) ( * UndefCntr0_tmp^0 FV_tmp^0_0 ) ) 0 ) ) ( and ( <= ( + 1 ( * ( - 1 ) FV_undef24_1 ) ) 0 ) ( <= ( + UndefCntr1_CT ( * UndefCntr1_undef24 FV_undef24_1 ) ( * UndefCntr1_id^0 FV_id^0_1 ) ( * UndefCntr1_maxId^0 FV_maxId^0_1 ) ( * UndefCntr1_tmp^0 FV_tmp^0_1 ) ) 0 ) ) ( and ( <= ( + 1 FV_undef24_2 ) 0 ) ( <= ( + UndefCntr2_CT ( * UndefCntr2_undef24 FV_undef24_2 ) ( * UndefCntr2_id^0 FV_id^0_2 ) ( * UndefCntr2_maxId^0 FV_maxId^0_2 ) ( * UndefCntr2_tmp^0 FV_tmp^0_2 ) ) 0 ) ) ( and ( <= ( + 1 FV_undef24_3 ) 0 ) ( <= ( + UndefCntr3_CT ( * UndefCntr3_undef24 FV_undef24_3 ) ( * UndefCntr3_id^0 FV_id^0_3 ) ( * UndefCntr3_maxId^0 FV_maxId^0_3 ) ( * UndefCntr3_tmp^0 FV_tmp^0_3 ) ) 0 ) ) ) ) ) ) ))
(assert ( or ( = UndefCntr3_undef24 0 ) ( and ( and ( = UndefCntr3_id^0 0 ) ( = UndefCntr3_maxId^0 0 ) ( = UndefCntr3_tmp^0 0 ) ) ( or ( and ( <= ( + 1 FV_undef24_3 ) 0 ) ( <= ( + UndefCntr3_CT ( * UndefCntr3_undef24 FV_undef24_3 ) ( * UndefCntr3_id^0 FV_id^0_3 ) ( * UndefCntr3_maxId^0 FV_maxId^0_3 ) ( * UndefCntr3_tmp^0 FV_tmp^0_3 ) ) 0 ) ) ( and ( and ( = UndefCntr0_undef24 UndefCntr1_undef24 ) ( = UndefCntr0_undef24 UndefCntr2_undef24 ) ( = UndefCntr0_undef24 UndefCntr3_undef24 ) ( = UndefCntr0_CT UndefCntr1_CT ) ( = UndefCntr0_CT UndefCntr2_CT ) ( = UndefCntr0_CT UndefCntr3_CT ) ) ( or ( and ( <= ( + 1 ( * ( - 1 ) FV_undef24_0 ) ) 0 ) ( <= ( + UndefCntr0_CT ( * UndefCntr0_undef24 FV_undef24_0 ) ( * UndefCntr0_id^0 FV_id^0_0 ) ( * UndefCntr0_maxId^0 FV_maxId^0_0 ) ( * UndefCntr0_tmp^0 FV_tmp^0_0 ) ) 0 ) ) ( and ( <= ( + 1 ( * ( - 1 ) FV_undef24_1 ) ) 0 ) ( <= ( + UndefCntr1_CT ( * UndefCntr1_undef24 FV_undef24_1 ) ( * UndefCntr1_id^0 FV_id^0_1 ) ( * UndefCntr1_maxId^0 FV_maxId^0_1 ) ( * UndefCntr1_tmp^0 FV_tmp^0_1 ) ) 0 ) ) ( and ( <= ( + 1 FV_undef24_2 ) 0 ) ( <= ( + UndefCntr2_CT ( * UndefCntr2_undef24 FV_undef24_2 ) ( * UndefCntr2_id^0 FV_id^0_2 ) ( * UndefCntr2_maxId^0 FV_maxId^0_2 ) ( * UndefCntr2_tmp^0 FV_tmp^0_2 ) ) 0 ) ) ( and ( <= ( + 1 FV_undef24_3 ) 0 ) ( <= ( + UndefCntr3_CT ( * UndefCntr3_undef24 FV_undef24_3 ) ( * UndefCntr3_id^0 FV_id^0_3 ) ( * UndefCntr3_maxId^0 FV_maxId^0_3 ) ( * UndefCntr3_tmp^0 FV_tmp^0_3 ) ) 0 ) ) ) ) ) ) ))
(assert ( or ( and ( >= lam14n0 0 ) ( >= lam14n1 0 ) ( >= lam14n2 0 ) ( >= lam14n3 0 ) ( > ( + ( * Nl2CT1 lam14n2 ) ( * Nl2CT2 lam14n3 ) ( - 1 ) ) 0 ) ( = ( + ( * ( - 1 ) lam14n0 ) ( * ( - 1 ) lam14n1 ) ( * Nl2id^01 lam14n2 ) ( * Nl2id^02 lam14n3 ) ) 0 ) ( = ( + ( * 1 lam14n0 ) ( * Nl2maxId^01 lam14n2 ) ( * Nl2maxId^02 lam14n3 ) ) 0 ) ( = ( + ( * 1 lam14n1 ) ( * Nl2tmp^01 lam14n2 ) ( * Nl2tmp^02 lam14n3 ) ) 0 ) ) ( and ( >= lam15n0 0 ) ( >= lam15n1 0 ) ( >= lam15n2 0 ) ( >= lam15n3 0 ) ( >= lam15n4 0 ) ( > ( + ( * 1 lam15n0 ) ( * 1 lam15n1 ) ( * Nl2CT1 lam15n3 ) ( * Nl2CT2 lam15n4 ) ( - 1 ) ) 0 ) ( = ( + ( * 1 lam15n0 ) ( * ( - 1 ) lam15n2 ) ( * Nl2id^01 lam15n3 ) ( * Nl2id^02 lam15n4 ) ) 0 ) ( = ( + ( * 1 lam15n1 ) ( * 1 lam15n2 ) ( * Nl2maxId^01 lam15n3 ) ( * Nl2maxId^02 lam15n4 ) ) 0 ) ( = ( + ( * ( - 1 ) lam15n0 ) ( * ( - 1 ) lam15n1 ) ( * Nl2tmp^01 lam15n3 ) ( * Nl2tmp^02 lam15n4 ) ) 0 ) ) ( and ( >= lam16n0 0 ) ( >= lam16n1 0 ) ( >= lam16n2 0 ) ( >= lam16n3 0 ) ( >= lam16n4 0 ) ( > ( + ( * 1 lam16n0 ) ( * Nl2CT1 lam16n3 ) ( * Nl2CT2 lam16n4 ) ( - 1 ) ) 0 ) ( = ( + ( * 1 lam16n0 ) ( * ( - 1 ) lam16n1 ) ( * Nl2id^01 lam16n3 ) ( * Nl2id^02 lam16n4 ) ) 0 ) ( = ( + ( * ( - 1 ) lam16n0 ) ( * ( - 1 ) lam16n2 ) ( * Nl2maxId^01 lam16n3 ) ( * Nl2maxId^02 lam16n4 ) ) 0 ) ( = ( + ( * 1 lam16n1 ) ( * 1 lam16n2 ) ( * Nl2tmp^01 lam16n3 ) ( * Nl2tmp^02 lam16n4 ) ) 0 ) ) ))
(assert ( and ( and ( <= ( + Nl2CT1 ( * Nl2id^01 FV_id^0_5 ) ( * Nl2maxId^01 FV_maxId^0_5 ) ( * Nl2tmp^01 FV_tmp^0_5 ) ) 0 ) ( <= ( + Nl2CT2 ( * Nl2id^02 FV_id^0_5 ) ( * Nl2maxId^02 FV_maxId^0_5 ) ( * Nl2tmp^02 FV_tmp^0_5 ) ) 0 ) ) ( or ( and ( <= ( + 1 FV_id^0_5 ( * ( - 1 ) FV_maxId^0_5 ) ) 0 ) ( <= ( + 1 FV_id^0_5 ( * ( - 1 ) FV_tmp^0_5 ) ) 0 ) ( <= ( + 1 FV_maxId^0_5 ( * ( - 1 ) FV_tmp^0_5 ) ) 0 ) ( <= ( + 1 ( * ( - 1 ) FV_undef24_5 ) ) 0 ) ( <= ( + ( - 1 ) ( * ( - 1 ) FV_id^0_5 ) ( * ( - 1 ) FV_maxId^0_5 ) ) 0 ) ) ( and ( <= ( + 1 FV_id^0_5 ( * ( - 1 ) FV_maxId^0_5 ) ) 0 ) ( <= ( + 1 FV_id^0_5 ( * ( - 1 ) FV_tmp^0_5 ) ) 0 ) ( <= ( + 1 ( * ( - 1 ) FV_undef24_5 ) ) 0 ) ( <= ( + ( * ( - 1 ) FV_maxId^0_5 ) FV_tmp^0_5 ) 0 ) ( <= ( + ( - 1 ) ( * ( - 1 ) FV_id^0_5 ) ( * ( - 1 ) FV_maxId^0_5 ) ) 0 ) ) ( and ( <= ( + 1 FV_id^0_5 ( * ( - 1 ) FV_maxId^0_5 ) ) 0 ) ( <= ( + 1 FV_id^0_5 ( * ( - 1 ) FV_tmp^0_5 ) ) 0 ) ( <= ( + 1 FV_maxId^0_5 ( * ( - 1 ) FV_tmp^0_5 ) ) 0 ) ( <= ( + 1 FV_undef24_5 ) 0 ) ( <= ( + ( - 1 ) ( * ( - 1 ) FV_id^0_5 ) ( * ( - 1 ) FV_maxId^0_5 ) ) 0 ) ) ( and ( <= ( + 1 FV_id^0_5 ( * ( - 1 ) FV_maxId^0_5 ) ) 0 ) ( <= ( + 1 FV_id^0_5 ( * ( - 1 ) FV_tmp^0_5 ) ) 0 ) ( <= ( + 1 FV_undef24_5 ) 0 ) ( <= ( + ( * ( - 1 ) FV_maxId^0_5 ) FV_tmp^0_5 ) 0 ) ( <= ( + ( - 1 ) ( * ( - 1 ) FV_id^0_5 ) ( * ( - 1 ) FV_maxId^0_5 ) ) 0 ) ) ) ))
(check-sat)
(exit)
